NAME: path_n16
TYPE: TSP
DIMENSION: 16
EDGE_WEIGHT_TYPE: EUC_2D
NODE_COORD_SECTION
1 0.000000 0.000000
2 10.000000 0.000000
3 20.000000 0.000000
4 30.000000 0.000000
5 40.000000 0.000000
6 50.000000 0.000000
7 60.000000 0.000000
8 70.000000 0.000000
9 80.000000 0.000000
10 90.000000 0.000000
11 100.000000 0.000000
12 110.000000 0.000000
13 120.000000 0.000000
14 130.000000 0.000000
15 140.000000 0.000000
16 150.000000 0.000000
EOF
